4	19	15	10	10	7	10	6	6	7
20	6	13	15	8	5	14	3	8	7
11	13	13	11	14	20	19	9	11	7
13	15	7	18	11	18	12	19	7	7
13	6	16	13	9	16	16	3	15	10
8	9	9	13	7	6	1	12	11	20
11	20	5	17	15	4	3	14	4	19
17	13	11	15	3	7	11	13	7	5
18	20	7	2	11	19	7	14	14	5
